25 100
  0     40.0     50.0       0.0     1236.0      0.0       0.0       0.0  
  1     45.0     68.0      890.0     989.0     90.0      10.0      10.0  
  2     45.0     70.0      816.0     879.0     90.0       1.0      30.0  
  3     42.0     66.0      55.0      156.0     90.0       5.0      10.0  
  4     42.0     68.0      703.0     806.0     90.0       6.0      10.0  
  5     42.0     65.0      15.0      60.0      90.0       4.0      10.0  
  6     40.0     69.0      559.0     764.0     90.0       3.0      20.0  
  7     40.0     66.0      172.0     223.0     90.0       3.0      20.0  
  8     38.0     68.0      250.0     329.0     90.0       6.0      20.0  
  9     38.0     70.0      489.0     650.0     90.0       7.0      10.0  
 10     35.0     66.0      361.0     406.0     90.0       4.0      10.0  
 11     35.0     69.0      450.0     503.0     90.0       2.0      10.0  
 12     25.0     85.0      647.0     726.0     90.0       0.0      20.0  
 13     22.0     75.0      30.0      95.0      90.0       9.0      30.0  
 14     22.0     85.0      571.0     616.0     90.0       4.0      10.0  
 15     20.0     80.0      392.0     421.0     90.0       0.0      40.0  
 16     20.0     85.0      478.0     525.0     90.0      11.0      40.0  
 17     18.0     75.0      105.0     142.0     90.0      12.0      20.0  
 18     15.0     75.0      172.0     261.0     90.0      13.0      20.0  
 19     15.0     80.0      274.0     349.0     90.0       3.0      10.0  
 20     30.0     50.0      10.0      77.0      90.0       9.0      10.0  
 21     30.0     52.0      918.0     961.0     90.0      10.0      20.0  
 22     28.0     52.0      806.0     889.0     90.0      18.0      20.0  
 23     28.0     55.0      739.0     770.0     90.0       2.0      10.0  
 24     25.0     50.0      55.0      154.0     90.0       3.0      10.0  
 25     25.0     52.0      172.0     221.0     90.0       3.0      40.0  
